c Sudoku solution
p cnf 729 0
155 0
162 0
188 0
267 0
276 0
285 0
294 0
314 0
144 0
359 0
393 0
419 0
425 0
335 0
457 0
549 0
577 0
624 0
643 0
253 0
695 0
565 0
775 0
783 0
473 0
796 0
811 0
915 0
845 0
829 0
769 0
239 0
936 0
952 0
442 0
346 0
981 0
689 0
834 0
923 0
754 0
741 0
947 0
863 0
968 0
856 0
974 0
999 0
248 0
361 0
221 0
212 0
328 0
372 0
387 0
464 0
486 0
584 0
666 0
592 0
526 0
632 0
617 0
116 0
133 0
127 0
513 0
718 0
722 0
737 0
878 0
671 0
498 0
431 0
538 0
551 0
658 0
179 0
191 0
882 0
897 0
